(set-logic QF_LRA)
(declare-fun T1 () Real )
(declare-fun T2 () Real )
(declare-fun T3 () Real )
(declare-fun T4 () Real )
(declare-fun T5 () Real )
(declare-fun T6 () Real )
(declare-fun T7 () Real )
(declare-fun T8 () Real )
(declare-fun T9 () Real )
(declare-fun T10 () Real )
(declare-fun Z () Real )
(assert ( and 
(or ( <= ( + T1 5 ) T2 ) ( <= ( + T2 100 ) T1 ) )
(or ( <= ( + T1 59 )  ( + T2 100 ) ) ( <= ( + T2 159 )( + T1 5 ) ) )
(or ( <= ( + T1 115 )  ( + T2 159 ) ) ( <= ( + T2 169 )( + T1 59 ) ) )
(or ( <= ( + T1 176 )  ( + T2 169 ) ) ( <= ( + T2 214 )( + T1 115 ) ) )
(or ( <= ( + T1 242 )  ( + T2 214 ) ) ( <= ( + T2 282 )( + T1 176 ) ) )
(or ( <= ( + T1 280 )  ( + T2 282 ) ) ( <= ( + T2 319 )( + T1 242 ) ) )
(or ( <= ( + T1 302 )  ( + T2 319 ) ) ( <= ( + T2 416 )( + T1 280 ) ) )
(or ( <= ( + T1 360 )  ( + T2 416 ) ) ( <= ( + T2 473 )( + T1 302 ) ) )
(or ( <= ( + T1 430 )  ( + T2 473 ) ) ( <= ( + T2 566 )( + T1 360 ) ) )
(or ( <= ( + T1 455 )  ( + T2 566 ) ) ( <= ( + T2 576 )( + T1 430 ) ) )
(or ( <= ( + T1 499 )  ( + T2 576 ) ) ( <= ( + T2 669 )( + T1 455 ) ) )
(or ( <= ( + T1 514 )  ( + T2 669 ) ) ( <= ( + T2 735 )( + T1 499 ) ) )
(or ( <= ( + T1 5 ) T3 ) ( <= ( + T3 52 ) T1 ) )
(or ( <= ( + T1 59 )  ( + T3 52 ) ) ( <= ( + T3 107 )( + T1 5 ) ) )
(or ( <= ( + T1 115 )  ( + T3 107 ) ) ( <= ( + T3 150 )( + T1 59 ) ) )
(or ( <= ( + T1 176 )  ( + T3 150 ) ) ( <= ( + T3 180 )( + T1 115 ) ) )
(or ( <= ( + T1 242 )  ( + T3 180 ) ) ( <= ( + T3 252 )( + T1 176 ) ) )
(or ( <= ( + T1 280 )  ( + T3 252 ) ) ( <= ( + T3 350 )( + T1 242 ) ) )
(or ( <= ( + T1 302 )  ( + T3 350 ) ) ( <= ( + T3 445 )( + T1 280 ) ) )
(or ( <= ( + T1 360 )  ( + T3 445 ) ) ( <= ( + T3 521 )( + T1 302 ) ) )
(or ( <= ( + T1 430 )  ( + T3 521 ) ) ( <= ( + T3 524 )( + T1 360 ) ) )
(or ( <= ( + T1 455 )  ( + T3 524 ) ) ( <= ( + T3 574 )( + T1 430 ) ) )
(or ( <= ( + T1 499 )  ( + T3 574 ) ) ( <= ( + T3 611 )( + T1 455 ) ) )
(or ( <= ( + T1 514 )  ( + T3 611 ) ) ( <= ( + T3 679 )( + T1 499 ) ) )
(or ( <= ( + T1 5 ) T4 ) ( <= ( + T4 87 ) T1 ) )
(or ( <= ( + T1 59 )  ( + T4 87 ) ) ( <= ( + T4 97 )( + T1 5 ) ) )
(or ( <= ( + T1 115 )  ( + T4 97 ) ) ( <= ( + T4 123 )( + T1 59 ) ) )
(or ( <= ( + T1 176 )  ( + T4 123 ) ) ( <= ( + T4 131 )( + T1 115 ) ) )
(or ( <= ( + T1 242 )  ( + T4 131 ) ) ( <= ( + T4 218 )( + T1 176 ) ) )
(or ( <= ( + T1 280 )  ( + T4 218 ) ) ( <= ( + T4 287 )( + T1 242 ) ) )
(or ( <= ( + T1 302 )  ( + T4 287 ) ) ( <= ( + T4 362 )( + T1 280 ) ) )
(or ( <= ( + T1 360 )  ( + T4 362 ) ) ( <= ( + T4 400 )( + T1 302 ) ) )
(or ( <= ( + T1 430 )  ( + T4 400 ) ) ( <= ( + T4 479 )( + T1 360 ) ) )
(or ( <= ( + T1 455 )  ( + T4 479 ) ) ( <= ( + T4 563 )( + T1 430 ) ) )
(or ( <= ( + T1 499 )  ( + T4 563 ) ) ( <= ( + T4 645 )( + T1 455 ) ) )
(or ( <= ( + T1 514 )  ( + T4 645 ) ) ( <= ( + T4 691 )( + T1 499 ) ) )
(or ( <= ( + T1 5 ) T5 ) ( <= ( + T5 20 ) T1 ) )
(or ( <= ( + T1 59 )  ( + T5 20 ) ) ( <= ( + T5 99 )( + T1 5 ) ) )
(or ( <= ( + T1 115 )  ( + T5 99 ) ) ( <= ( + T5 153 )( + T1 59 ) ) )
(or ( <= ( + T1 176 )  ( + T5 153 ) ) ( <= ( + T5 166 )( + T1 115 ) ) )
(or ( <= ( + T1 242 )  ( + T5 166 ) ) ( <= ( + T5 206 )( + T1 176 ) ) )
(or ( <= ( + T1 280 )  ( + T5 206 ) ) ( <= ( + T5 252 )( + T1 242 ) ) )
(or ( <= ( + T1 302 )  ( + T5 252 ) ) ( <= ( + T5 282 )( + T1 280 ) ) )
(or ( <= ( + T1 360 )  ( + T5 282 ) ) ( <= ( + T5 373 )( + T1 302 ) ) )
(or ( <= ( + T1 430 )  ( + T5 373 ) ) ( <= ( + T5 425 )( + T1 360 ) ) )
(or ( <= ( + T1 455 )  ( + T5 425 ) ) ( <= ( + T5 498 )( + T1 430 ) ) )
(or ( <= ( + T1 499 )  ( + T5 498 ) ) ( <= ( + T5 518 )( + T1 455 ) ) )
(or ( <= ( + T1 514 )  ( + T5 518 ) ) ( <= ( + T5 542 )( + T1 499 ) ) )
(or ( <= ( + T1 5 ) T6 ) ( <= ( + T6 22 ) T1 ) )
(or ( <= ( + T1 59 )  ( + T6 22 ) ) ( <= ( + T6 88 )( + T1 5 ) ) )
(or ( <= ( + T1 115 )  ( + T6 88 ) ) ( <= ( + T6 187 )( + T1 59 ) ) )
(or ( <= ( + T1 176 )  ( + T6 187 ) ) ( <= ( + T6 211 )( + T1 115 ) ) )
(or ( <= ( + T1 242 )  ( + T6 211 ) ) ( <= ( + T6 226 )( + T1 176 ) ) )
(or ( <= ( + T1 280 )  ( + T6 226 ) ) ( <= ( + T6 313 )( + T1 242 ) ) )
(or ( <= ( + T1 302 )  ( + T6 313 ) ) ( <= ( + T6 405 )( + T1 280 ) ) )
(or ( <= ( + T1 360 )  ( + T6 405 ) ) ( <= ( + T6 458 )( + T1 302 ) ) )
(or ( <= ( + T1 430 )  ( + T6 458 ) ) ( <= ( + T6 507 )( + T1 360 ) ) )
(or ( <= ( + T1 455 )  ( + T6 507 ) ) ( <= ( + T6 524 )( + T1 430 ) ) )
(or ( <= ( + T1 499 )  ( + T6 524 ) ) ( <= ( + T6 536 )( + T1 455 ) ) )
(or ( <= ( + T1 514 )  ( + T6 536 ) ) ( <= ( + T6 623 )( + T1 499 ) ) )
(or ( <= ( + T1 5 ) T7 ) ( <= ( + T7 85 ) T1 ) )
(or ( <= ( + T1 59 )  ( + T7 85 ) ) ( <= ( + T7 171 )( + T1 5 ) ) )
(or ( <= ( + T1 115 )  ( + T7 171 ) ) ( <= ( + T7 195 )( + T1 59 ) ) )
(or ( <= ( + T1 176 )  ( + T7 195 ) ) ( <= ( + T7 210 )( + T1 115 ) ) )
(or ( <= ( + T1 242 )  ( + T7 210 ) ) ( <= ( + T7 279 )( + T1 176 ) ) )
(or ( <= ( + T1 280 )  ( + T7 279 ) ) ( <= ( + T7 284 )( + T1 242 ) ) )
(or ( <= ( + T1 302 )  ( + T7 284 ) ) ( <= ( + T7 344 )( + T1 280 ) ) )
(or ( <= ( + T1 360 )  ( + T7 344 ) ) ( <= ( + T7 385 )( + T1 302 ) ) )
(or ( <= ( + T1 430 )  ( + T7 385 ) ) ( <= ( + T7 420 )( + T1 360 ) ) )
(or ( <= ( + T1 455 )  ( + T7 420 ) ) ( <= ( + T7 433 )( + T1 430 ) ) )
(or ( <= ( + T1 499 )  ( + T7 433 ) ) ( <= ( + T7 438 )( + T1 455 ) ) )
(or ( <= ( + T1 514 )  ( + T7 438 ) ) ( <= ( + T7 512 )( + T1 499 ) ) )
(or ( <= ( + T1 5 ) T8 ) ( <= ( + T8 10 ) T1 ) )
(or ( <= ( + T1 59 )  ( + T8 10 ) ) ( <= ( + T8 96 )( + T1 5 ) ) )
(or ( <= ( + T1 115 )  ( + T8 96 ) ) ( <= ( + T8 112 )( + T1 59 ) ) )
(or ( <= ( + T1 176 )  ( + T8 112 ) ) ( <= ( + T8 173 )( + T1 115 ) ) )
(or ( <= ( + T1 242 )  ( + T8 173 ) ) ( <= ( + T8 231 )( + T1 176 ) ) )
(or ( <= ( + T1 280 )  ( + T8 231 ) ) ( <= ( + T8 318 )( + T1 242 ) ) )
(or ( <= ( + T1 302 )  ( + T8 318 ) ) ( <= ( + T8 354 )( + T1 280 ) ) )
(or ( <= ( + T1 360 )  ( + T8 354 ) ) ( <= ( + T8 385 )( + T1 302 ) ) )
(or ( <= ( + T1 430 )  ( + T8 385 ) ) ( <= ( + T8 437 )( + T1 360 ) ) )
(or ( <= ( + T1 455 )  ( + T8 437 ) ) ( <= ( + T8 524 )( + T1 430 ) ) )
(or ( <= ( + T1 499 )  ( + T8 524 ) ) ( <= ( + T8 579 )( + T1 455 ) ) )
(or ( <= ( + T1 514 )  ( + T8 579 ) ) ( <= ( + T8 645 )( + T1 499 ) ) )
(or ( <= ( + T1 5 ) T9 ) ( <= ( + T9 25 ) T1 ) )
(or ( <= ( + T1 59 )  ( + T9 25 ) ) ( <= ( + T9 71 )( + T1 5 ) ) )
(or ( <= ( + T1 115 )  ( + T9 71 ) ) ( <= ( + T9 141 )( + T1 59 ) ) )
(or ( <= ( + T1 176 )  ( + T9 141 ) ) ( <= ( + T9 214 )( + T1 115 ) ) )
(or ( <= ( + T1 242 )  ( + T9 214 ) ) ( <= ( + T9 228 )( + T1 176 ) ) )
(or ( <= ( + T1 280 )  ( + T9 228 ) ) ( <= ( + T9 310 )( + T1 242 ) ) )
(or ( <= ( + T1 302 )  ( + T9 310 ) ) ( <= ( + T9 369 )( + T1 280 ) ) )
(or ( <= ( + T1 360 )  ( + T9 369 ) ) ( <= ( + T9 419 )( + T1 302 ) ) )
(or ( <= ( + T1 430 )  ( + T9 419 ) ) ( <= ( + T9 486 )( + T1 360 ) ) )
(or ( <= ( + T1 455 )  ( + T9 486 ) ) ( <= ( + T9 520 )( + T1 430 ) ) )
(or ( <= ( + T1 499 )  ( + T9 520 ) ) ( <= ( + T9 584 )( + T1 455 ) ) )
(or ( <= ( + T1 514 )  ( + T9 584 ) ) ( <= ( + T9 672 )( + T1 499 ) ) )
(or ( <= ( + T1 5 ) T10 ) ( <= ( + T10 91 ) T1 ) )
(or ( <= ( + T1 59 )  ( + T10 91 ) ) ( <= ( + T10 166 )( + T1 5 ) ) )
(or ( <= ( + T1 115 )  ( + T10 166 ) ) ( <= ( + T10 246 )( + T1 59 ) ) )
(or ( <= ( + T1 176 )  ( + T10 246 ) ) ( <= ( + T10 271 )( + T1 115 ) ) )
(or ( <= ( + T1 242 )  ( + T10 271 ) ) ( <= ( + T10 310 )( + T1 176 ) ) )
(or ( <= ( + T1 280 )  ( + T10 310 ) ) ( <= ( + T10 394 )( + T1 242 ) ) )
(or ( <= ( + T1 302 )  ( + T10 394 ) ) ( <= ( + T10 445 )( + T1 280 ) ) )
(or ( <= ( + T1 360 )  ( + T10 445 ) ) ( <= ( + T10 493 )( + T1 302 ) ) )
(or ( <= ( + T1 430 )  ( + T10 493 ) ) ( <= ( + T10 562 )( + T1 360 ) ) )
(or ( <= ( + T1 455 )  ( + T10 562 ) ) ( <= ( + T10 628 )( + T1 430 ) ) )
(or ( <= ( + T1 499 )  ( + T10 628 ) ) ( <= ( + T10 688 )( + T1 455 ) ) )
(or ( <= ( + T1 514 )  ( + T10 688 ) ) ( <= ( + T10 767 )( + T1 499 ) ) )
(or ( <= ( + T2 100 ) T3 ) ( <= ( + T3 52 ) T2 ) )
(or ( <= ( + T2 159 )  ( + T3 52 ) ) ( <= ( + T3 107 )( + T2 100 ) ) )
(or ( <= ( + T2 169 )  ( + T3 107 ) ) ( <= ( + T3 150 )( + T2 159 ) ) )
(or ( <= ( + T2 214 )  ( + T3 150 ) ) ( <= ( + T3 180 )( + T2 169 ) ) )
(or ( <= ( + T2 282 )  ( + T3 180 ) ) ( <= ( + T3 252 )( + T2 214 ) ) )
(or ( <= ( + T2 319 )  ( + T3 252 ) ) ( <= ( + T3 350 )( + T2 282 ) ) )
(or ( <= ( + T2 416 )  ( + T3 350 ) ) ( <= ( + T3 445 )( + T2 319 ) ) )
(or ( <= ( + T2 473 )  ( + T3 445 ) ) ( <= ( + T3 521 )( + T2 416 ) ) )
(or ( <= ( + T2 566 )  ( + T3 521 ) ) ( <= ( + T3 524 )( + T2 473 ) ) )
(or ( <= ( + T2 576 )  ( + T3 524 ) ) ( <= ( + T3 574 )( + T2 566 ) ) )
(or ( <= ( + T2 669 )  ( + T3 574 ) ) ( <= ( + T3 611 )( + T2 576 ) ) )
(or ( <= ( + T2 735 )  ( + T3 611 ) ) ( <= ( + T3 679 )( + T2 669 ) ) )
(or ( <= ( + T2 100 ) T4 ) ( <= ( + T4 87 ) T2 ) )
(or ( <= ( + T2 159 )  ( + T4 87 ) ) ( <= ( + T4 97 )( + T2 100 ) ) )
(or ( <= ( + T2 169 )  ( + T4 97 ) ) ( <= ( + T4 123 )( + T2 159 ) ) )
(or ( <= ( + T2 214 )  ( + T4 123 ) ) ( <= ( + T4 131 )( + T2 169 ) ) )
(or ( <= ( + T2 282 )  ( + T4 131 ) ) ( <= ( + T4 218 )( + T2 214 ) ) )
(or ( <= ( + T2 319 )  ( + T4 218 ) ) ( <= ( + T4 287 )( + T2 282 ) ) )
(or ( <= ( + T2 416 )  ( + T4 287 ) ) ( <= ( + T4 362 )( + T2 319 ) ) )
(or ( <= ( + T2 473 )  ( + T4 362 ) ) ( <= ( + T4 400 )( + T2 416 ) ) )
(or ( <= ( + T2 566 )  ( + T4 400 ) ) ( <= ( + T4 479 )( + T2 473 ) ) )
(or ( <= ( + T2 576 )  ( + T4 479 ) ) ( <= ( + T4 563 )( + T2 566 ) ) )
(or ( <= ( + T2 669 )  ( + T4 563 ) ) ( <= ( + T4 645 )( + T2 576 ) ) )
(or ( <= ( + T2 735 )  ( + T4 645 ) ) ( <= ( + T4 691 )( + T2 669 ) ) )
(or ( <= ( + T2 100 ) T5 ) ( <= ( + T5 20 ) T2 ) )
(or ( <= ( + T2 159 )  ( + T5 20 ) ) ( <= ( + T5 99 )( + T2 100 ) ) )
(or ( <= ( + T2 169 )  ( + T5 99 ) ) ( <= ( + T5 153 )( + T2 159 ) ) )
(or ( <= ( + T2 214 )  ( + T5 153 ) ) ( <= ( + T5 166 )( + T2 169 ) ) )
(or ( <= ( + T2 282 )  ( + T5 166 ) ) ( <= ( + T5 206 )( + T2 214 ) ) )
(or ( <= ( + T2 319 )  ( + T5 206 ) ) ( <= ( + T5 252 )( + T2 282 ) ) )
(or ( <= ( + T2 416 )  ( + T5 252 ) ) ( <= ( + T5 282 )( + T2 319 ) ) )
(or ( <= ( + T2 473 )  ( + T5 282 ) ) ( <= ( + T5 373 )( + T2 416 ) ) )
(or ( <= ( + T2 566 )  ( + T5 373 ) ) ( <= ( + T5 425 )( + T2 473 ) ) )
(or ( <= ( + T2 576 )  ( + T5 425 ) ) ( <= ( + T5 498 )( + T2 566 ) ) )
(or ( <= ( + T2 669 )  ( + T5 498 ) ) ( <= ( + T5 518 )( + T2 576 ) ) )
(or ( <= ( + T2 735 )  ( + T5 518 ) ) ( <= ( + T5 542 )( + T2 669 ) ) )
(or ( <= ( + T2 100 ) T6 ) ( <= ( + T6 22 ) T2 ) )
(or ( <= ( + T2 159 )  ( + T6 22 ) ) ( <= ( + T6 88 )( + T2 100 ) ) )
(or ( <= ( + T2 169 )  ( + T6 88 ) ) ( <= ( + T6 187 )( + T2 159 ) ) )
(or ( <= ( + T2 214 )  ( + T6 187 ) ) ( <= ( + T6 211 )( + T2 169 ) ) )
(or ( <= ( + T2 282 )  ( + T6 211 ) ) ( <= ( + T6 226 )( + T2 214 ) ) )
(or ( <= ( + T2 319 )  ( + T6 226 ) ) ( <= ( + T6 313 )( + T2 282 ) ) )
(or ( <= ( + T2 416 )  ( + T6 313 ) ) ( <= ( + T6 405 )( + T2 319 ) ) )
(or ( <= ( + T2 473 )  ( + T6 405 ) ) ( <= ( + T6 458 )( + T2 416 ) ) )
(or ( <= ( + T2 566 )  ( + T6 458 ) ) ( <= ( + T6 507 )( + T2 473 ) ) )
(or ( <= ( + T2 576 )  ( + T6 507 ) ) ( <= ( + T6 524 )( + T2 566 ) ) )
(or ( <= ( + T2 669 )  ( + T6 524 ) ) ( <= ( + T6 536 )( + T2 576 ) ) )
(or ( <= ( + T2 735 )  ( + T6 536 ) ) ( <= ( + T6 623 )( + T2 669 ) ) )
(or ( <= ( + T2 100 ) T7 ) ( <= ( + T7 85 ) T2 ) )
(or ( <= ( + T2 159 )  ( + T7 85 ) ) ( <= ( + T7 171 )( + T2 100 ) ) )
(or ( <= ( + T2 169 )  ( + T7 171 ) ) ( <= ( + T7 195 )( + T2 159 ) ) )
(or ( <= ( + T2 214 )  ( + T7 195 ) ) ( <= ( + T7 210 )( + T2 169 ) ) )
(or ( <= ( + T2 282 )  ( + T7 210 ) ) ( <= ( + T7 279 )( + T2 214 ) ) )
(or ( <= ( + T2 319 )  ( + T7 279 ) ) ( <= ( + T7 284 )( + T2 282 ) ) )
(or ( <= ( + T2 416 )  ( + T7 284 ) ) ( <= ( + T7 344 )( + T2 319 ) ) )
(or ( <= ( + T2 473 )  ( + T7 344 ) ) ( <= ( + T7 385 )( + T2 416 ) ) )
(or ( <= ( + T2 566 )  ( + T7 385 ) ) ( <= ( + T7 420 )( + T2 473 ) ) )
(or ( <= ( + T2 576 )  ( + T7 420 ) ) ( <= ( + T7 433 )( + T2 566 ) ) )
(or ( <= ( + T2 669 )  ( + T7 433 ) ) ( <= ( + T7 438 )( + T2 576 ) ) )
(or ( <= ( + T2 735 )  ( + T7 438 ) ) ( <= ( + T7 512 )( + T2 669 ) ) )
(or ( <= ( + T2 100 ) T8 ) ( <= ( + T8 10 ) T2 ) )
(or ( <= ( + T2 159 )  ( + T8 10 ) ) ( <= ( + T8 96 )( + T2 100 ) ) )
(or ( <= ( + T2 169 )  ( + T8 96 ) ) ( <= ( + T8 112 )( + T2 159 ) ) )
(or ( <= ( + T2 214 )  ( + T8 112 ) ) ( <= ( + T8 173 )( + T2 169 ) ) )
(or ( <= ( + T2 282 )  ( + T8 173 ) ) ( <= ( + T8 231 )( + T2 214 ) ) )
(or ( <= ( + T2 319 )  ( + T8 231 ) ) ( <= ( + T8 318 )( + T2 282 ) ) )
(or ( <= ( + T2 416 )  ( + T8 318 ) ) ( <= ( + T8 354 )( + T2 319 ) ) )
(or ( <= ( + T2 473 )  ( + T8 354 ) ) ( <= ( + T8 385 )( + T2 416 ) ) )
(or ( <= ( + T2 566 )  ( + T8 385 ) ) ( <= ( + T8 437 )( + T2 473 ) ) )
(or ( <= ( + T2 576 )  ( + T8 437 ) ) ( <= ( + T8 524 )( + T2 566 ) ) )
(or ( <= ( + T2 669 )  ( + T8 524 ) ) ( <= ( + T8 579 )( + T2 576 ) ) )
(or ( <= ( + T2 735 )  ( + T8 579 ) ) ( <= ( + T8 645 )( + T2 669 ) ) )
(or ( <= ( + T2 100 ) T9 ) ( <= ( + T9 25 ) T2 ) )
(or ( <= ( + T2 159 )  ( + T9 25 ) ) ( <= ( + T9 71 )( + T2 100 ) ) )
(or ( <= ( + T2 169 )  ( + T9 71 ) ) ( <= ( + T9 141 )( + T2 159 ) ) )
(or ( <= ( + T2 214 )  ( + T9 141 ) ) ( <= ( + T9 214 )( + T2 169 ) ) )
(or ( <= ( + T2 282 )  ( + T9 214 ) ) ( <= ( + T9 228 )( + T2 214 ) ) )
(or ( <= ( + T2 319 )  ( + T9 228 ) ) ( <= ( + T9 310 )( + T2 282 ) ) )
(or ( <= ( + T2 416 )  ( + T9 310 ) ) ( <= ( + T9 369 )( + T2 319 ) ) )
(or ( <= ( + T2 473 )  ( + T9 369 ) ) ( <= ( + T9 419 )( + T2 416 ) ) )
(or ( <= ( + T2 566 )  ( + T9 419 ) ) ( <= ( + T9 486 )( + T2 473 ) ) )
(or ( <= ( + T2 576 )  ( + T9 486 ) ) ( <= ( + T9 520 )( + T2 566 ) ) )
(or ( <= ( + T2 669 )  ( + T9 520 ) ) ( <= ( + T9 584 )( + T2 576 ) ) )
(or ( <= ( + T2 735 )  ( + T9 584 ) ) ( <= ( + T9 672 )( + T2 669 ) ) )
(or ( <= ( + T2 100 ) T10 ) ( <= ( + T10 91 ) T2 ) )
(or ( <= ( + T2 159 )  ( + T10 91 ) ) ( <= ( + T10 166 )( + T2 100 ) ) )
(or ( <= ( + T2 169 )  ( + T10 166 ) ) ( <= ( + T10 246 )( + T2 159 ) ) )
(or ( <= ( + T2 214 )  ( + T10 246 ) ) ( <= ( + T10 271 )( + T2 169 ) ) )
(or ( <= ( + T2 282 )  ( + T10 271 ) ) ( <= ( + T10 310 )( + T2 214 ) ) )
(or ( <= ( + T2 319 )  ( + T10 310 ) ) ( <= ( + T10 394 )( + T2 282 ) ) )
(or ( <= ( + T2 416 )  ( + T10 394 ) ) ( <= ( + T10 445 )( + T2 319 ) ) )
(or ( <= ( + T2 473 )  ( + T10 445 ) ) ( <= ( + T10 493 )( + T2 416 ) ) )
(or ( <= ( + T2 566 )  ( + T10 493 ) ) ( <= ( + T10 562 )( + T2 473 ) ) )
(or ( <= ( + T2 576 )  ( + T10 562 ) ) ( <= ( + T10 628 )( + T2 566 ) ) )
(or ( <= ( + T2 669 )  ( + T10 628 ) ) ( <= ( + T10 688 )( + T2 576 ) ) )
(or ( <= ( + T2 735 )  ( + T10 688 ) ) ( <= ( + T10 767 )( + T2 669 ) ) )
(or ( <= ( + T3 52 ) T4 ) ( <= ( + T4 87 ) T3 ) )
(or ( <= ( + T3 107 )  ( + T4 87 ) ) ( <= ( + T4 97 )( + T3 52 ) ) )
(or ( <= ( + T3 150 )  ( + T4 97 ) ) ( <= ( + T4 123 )( + T3 107 ) ) )
(or ( <= ( + T3 180 )  ( + T4 123 ) ) ( <= ( + T4 131 )( + T3 150 ) ) )
(or ( <= ( + T3 252 )  ( + T4 131 ) ) ( <= ( + T4 218 )( + T3 180 ) ) )
(or ( <= ( + T3 350 )  ( + T4 218 ) ) ( <= ( + T4 287 )( + T3 252 ) ) )
(or ( <= ( + T3 445 )  ( + T4 287 ) ) ( <= ( + T4 362 )( + T3 350 ) ) )
(or ( <= ( + T3 521 )  ( + T4 362 ) ) ( <= ( + T4 400 )( + T3 445 ) ) )
(or ( <= ( + T3 524 )  ( + T4 400 ) ) ( <= ( + T4 479 )( + T3 521 ) ) )
(or ( <= ( + T3 574 )  ( + T4 479 ) ) ( <= ( + T4 563 )( + T3 524 ) ) )
(or ( <= ( + T3 611 )  ( + T4 563 ) ) ( <= ( + T4 645 )( + T3 574 ) ) )
(or ( <= ( + T3 679 )  ( + T4 645 ) ) ( <= ( + T4 691 )( + T3 611 ) ) )
(or ( <= ( + T3 52 ) T5 ) ( <= ( + T5 20 ) T3 ) )
(or ( <= ( + T3 107 )  ( + T5 20 ) ) ( <= ( + T5 99 )( + T3 52 ) ) )
(or ( <= ( + T3 150 )  ( + T5 99 ) ) ( <= ( + T5 153 )( + T3 107 ) ) )
(or ( <= ( + T3 180 )  ( + T5 153 ) ) ( <= ( + T5 166 )( + T3 150 ) ) )
(or ( <= ( + T3 252 )  ( + T5 166 ) ) ( <= ( + T5 206 )( + T3 180 ) ) )
(or ( <= ( + T3 350 )  ( + T5 206 ) ) ( <= ( + T5 252 )( + T3 252 ) ) )
(or ( <= ( + T3 445 )  ( + T5 252 ) ) ( <= ( + T5 282 )( + T3 350 ) ) )
(or ( <= ( + T3 521 )  ( + T5 282 ) ) ( <= ( + T5 373 )( + T3 445 ) ) )
(or ( <= ( + T3 524 )  ( + T5 373 ) ) ( <= ( + T5 425 )( + T3 521 ) ) )
(or ( <= ( + T3 574 )  ( + T5 425 ) ) ( <= ( + T5 498 )( + T3 524 ) ) )
(or ( <= ( + T3 611 )  ( + T5 498 ) ) ( <= ( + T5 518 )( + T3 574 ) ) )
(or ( <= ( + T3 679 )  ( + T5 518 ) ) ( <= ( + T5 542 )( + T3 611 ) ) )
(or ( <= ( + T3 52 ) T6 ) ( <= ( + T6 22 ) T3 ) )
(or ( <= ( + T3 107 )  ( + T6 22 ) ) ( <= ( + T6 88 )( + T3 52 ) ) )
(or ( <= ( + T3 150 )  ( + T6 88 ) ) ( <= ( + T6 187 )( + T3 107 ) ) )
(or ( <= ( + T3 180 )  ( + T6 187 ) ) ( <= ( + T6 211 )( + T3 150 ) ) )
(or ( <= ( + T3 252 )  ( + T6 211 ) ) ( <= ( + T6 226 )( + T3 180 ) ) )
(or ( <= ( + T3 350 )  ( + T6 226 ) ) ( <= ( + T6 313 )( + T3 252 ) ) )
(or ( <= ( + T3 445 )  ( + T6 313 ) ) ( <= ( + T6 405 )( + T3 350 ) ) )
(or ( <= ( + T3 521 )  ( + T6 405 ) ) ( <= ( + T6 458 )( + T3 445 ) ) )
(or ( <= ( + T3 524 )  ( + T6 458 ) ) ( <= ( + T6 507 )( + T3 521 ) ) )
(or ( <= ( + T3 574 )  ( + T6 507 ) ) ( <= ( + T6 524 )( + T3 524 ) ) )
(or ( <= ( + T3 611 )  ( + T6 524 ) ) ( <= ( + T6 536 )( + T3 574 ) ) )
(or ( <= ( + T3 679 )  ( + T6 536 ) ) ( <= ( + T6 623 )( + T3 611 ) ) )
(or ( <= ( + T3 52 ) T7 ) ( <= ( + T7 85 ) T3 ) )
(or ( <= ( + T3 107 )  ( + T7 85 ) ) ( <= ( + T7 171 )( + T3 52 ) ) )
(or ( <= ( + T3 150 )  ( + T7 171 ) ) ( <= ( + T7 195 )( + T3 107 ) ) )
(or ( <= ( + T3 180 )  ( + T7 195 ) ) ( <= ( + T7 210 )( + T3 150 ) ) )
(or ( <= ( + T3 252 )  ( + T7 210 ) ) ( <= ( + T7 279 )( + T3 180 ) ) )
(or ( <= ( + T3 350 )  ( + T7 279 ) ) ( <= ( + T7 284 )( + T3 252 ) ) )
(or ( <= ( + T3 445 )  ( + T7 284 ) ) ( <= ( + T7 344 )( + T3 350 ) ) )
(or ( <= ( + T3 521 )  ( + T7 344 ) ) ( <= ( + T7 385 )( + T3 445 ) ) )
(or ( <= ( + T3 524 )  ( + T7 385 ) ) ( <= ( + T7 420 )( + T3 521 ) ) )
(or ( <= ( + T3 574 )  ( + T7 420 ) ) ( <= ( + T7 433 )( + T3 524 ) ) )
(or ( <= ( + T3 611 )  ( + T7 433 ) ) ( <= ( + T7 438 )( + T3 574 ) ) )
(or ( <= ( + T3 679 )  ( + T7 438 ) ) ( <= ( + T7 512 )( + T3 611 ) ) )
(or ( <= ( + T3 52 ) T8 ) ( <= ( + T8 10 ) T3 ) )
(or ( <= ( + T3 107 )  ( + T8 10 ) ) ( <= ( + T8 96 )( + T3 52 ) ) )
(or ( <= ( + T3 150 )  ( + T8 96 ) ) ( <= ( + T8 112 )( + T3 107 ) ) )
(or ( <= ( + T3 180 )  ( + T8 112 ) ) ( <= ( + T8 173 )( + T3 150 ) ) )
(or ( <= ( + T3 252 )  ( + T8 173 ) ) ( <= ( + T8 231 )( + T3 180 ) ) )
(or ( <= ( + T3 350 )  ( + T8 231 ) ) ( <= ( + T8 318 )( + T3 252 ) ) )
(or ( <= ( + T3 445 )  ( + T8 318 ) ) ( <= ( + T8 354 )( + T3 350 ) ) )
(or ( <= ( + T3 521 )  ( + T8 354 ) ) ( <= ( + T8 385 )( + T3 445 ) ) )
(or ( <= ( + T3 524 )  ( + T8 385 ) ) ( <= ( + T8 437 )( + T3 521 ) ) )
(or ( <= ( + T3 574 )  ( + T8 437 ) ) ( <= ( + T8 524 )( + T3 524 ) ) )
(or ( <= ( + T3 611 )  ( + T8 524 ) ) ( <= ( + T8 579 )( + T3 574 ) ) )
(or ( <= ( + T3 679 )  ( + T8 579 ) ) ( <= ( + T8 645 )( + T3 611 ) ) )
(or ( <= ( + T3 52 ) T9 ) ( <= ( + T9 25 ) T3 ) )
(or ( <= ( + T3 107 )  ( + T9 25 ) ) ( <= ( + T9 71 )( + T3 52 ) ) )
(or ( <= ( + T3 150 )  ( + T9 71 ) ) ( <= ( + T9 141 )( + T3 107 ) ) )
(or ( <= ( + T3 180 )  ( + T9 141 ) ) ( <= ( + T9 214 )( + T3 150 ) ) )
(or ( <= ( + T3 252 )  ( + T9 214 ) ) ( <= ( + T9 228 )( + T3 180 ) ) )
(or ( <= ( + T3 350 )  ( + T9 228 ) ) ( <= ( + T9 310 )( + T3 252 ) ) )
(or ( <= ( + T3 445 )  ( + T9 310 ) ) ( <= ( + T9 369 )( + T3 350 ) ) )
(or ( <= ( + T3 521 )  ( + T9 369 ) ) ( <= ( + T9 419 )( + T3 445 ) ) )
(or ( <= ( + T3 524 )  ( + T9 419 ) ) ( <= ( + T9 486 )( + T3 521 ) ) )
(or ( <= ( + T3 574 )  ( + T9 486 ) ) ( <= ( + T9 520 )( + T3 524 ) ) )
(or ( <= ( + T3 611 )  ( + T9 520 ) ) ( <= ( + T9 584 )( + T3 574 ) ) )
(or ( <= ( + T3 679 )  ( + T9 584 ) ) ( <= ( + T9 672 )( + T3 611 ) ) )
(or ( <= ( + T3 52 ) T10 ) ( <= ( + T10 91 ) T3 ) )
(or ( <= ( + T3 107 )  ( + T10 91 ) ) ( <= ( + T10 166 )( + T3 52 ) ) )
(or ( <= ( + T3 150 )  ( + T10 166 ) ) ( <= ( + T10 246 )( + T3 107 ) ) )
(or ( <= ( + T3 180 )  ( + T10 246 ) ) ( <= ( + T10 271 )( + T3 150 ) ) )
(or ( <= ( + T3 252 )  ( + T10 271 ) ) ( <= ( + T10 310 )( + T3 180 ) ) )
(or ( <= ( + T3 350 )  ( + T10 310 ) ) ( <= ( + T10 394 )( + T3 252 ) ) )
(or ( <= ( + T3 445 )  ( + T10 394 ) ) ( <= ( + T10 445 )( + T3 350 ) ) )
(or ( <= ( + T3 521 )  ( + T10 445 ) ) ( <= ( + T10 493 )( + T3 445 ) ) )
(or ( <= ( + T3 524 )  ( + T10 493 ) ) ( <= ( + T10 562 )( + T3 521 ) ) )
(or ( <= ( + T3 574 )  ( + T10 562 ) ) ( <= ( + T10 628 )( + T3 524 ) ) )
(or ( <= ( + T3 611 )  ( + T10 628 ) ) ( <= ( + T10 688 )( + T3 574 ) ) )
(or ( <= ( + T3 679 )  ( + T10 688 ) ) ( <= ( + T10 767 )( + T3 611 ) ) )
(or ( <= ( + T4 87 ) T5 ) ( <= ( + T5 20 ) T4 ) )
(or ( <= ( + T4 97 )  ( + T5 20 ) ) ( <= ( + T5 99 )( + T4 87 ) ) )
(or ( <= ( + T4 123 )  ( + T5 99 ) ) ( <= ( + T5 153 )( + T4 97 ) ) )
(or ( <= ( + T4 131 )  ( + T5 153 ) ) ( <= ( + T5 166 )( + T4 123 ) ) )
(or ( <= ( + T4 218 )  ( + T5 166 ) ) ( <= ( + T5 206 )( + T4 131 ) ) )
(or ( <= ( + T4 287 )  ( + T5 206 ) ) ( <= ( + T5 252 )( + T4 218 ) ) )
(or ( <= ( + T4 362 )  ( + T5 252 ) ) ( <= ( + T5 282 )( + T4 287 ) ) )
(or ( <= ( + T4 400 )  ( + T5 282 ) ) ( <= ( + T5 373 )( + T4 362 ) ) )
(or ( <= ( + T4 479 )  ( + T5 373 ) ) ( <= ( + T5 425 )( + T4 400 ) ) )
(or ( <= ( + T4 563 )  ( + T5 425 ) ) ( <= ( + T5 498 )( + T4 479 ) ) )
(or ( <= ( + T4 645 )  ( + T5 498 ) ) ( <= ( + T5 518 )( + T4 563 ) ) )
(or ( <= ( + T4 691 )  ( + T5 518 ) ) ( <= ( + T5 542 )( + T4 645 ) ) )
(or ( <= ( + T4 87 ) T6 ) ( <= ( + T6 22 ) T4 ) )
(or ( <= ( + T4 97 )  ( + T6 22 ) ) ( <= ( + T6 88 )( + T4 87 ) ) )
(or ( <= ( + T4 123 )  ( + T6 88 ) ) ( <= ( + T6 187 )( + T4 97 ) ) )
(or ( <= ( + T4 131 )  ( + T6 187 ) ) ( <= ( + T6 211 )( + T4 123 ) ) )
(or ( <= ( + T4 218 )  ( + T6 211 ) ) ( <= ( + T6 226 )( + T4 131 ) ) )
(or ( <= ( + T4 287 )  ( + T6 226 ) ) ( <= ( + T6 313 )( + T4 218 ) ) )
(or ( <= ( + T4 362 )  ( + T6 313 ) ) ( <= ( + T6 405 )( + T4 287 ) ) )
(or ( <= ( + T4 400 )  ( + T6 405 ) ) ( <= ( + T6 458 )( + T4 362 ) ) )
(or ( <= ( + T4 479 )  ( + T6 458 ) ) ( <= ( + T6 507 )( + T4 400 ) ) )
(or ( <= ( + T4 563 )  ( + T6 507 ) ) ( <= ( + T6 524 )( + T4 479 ) ) )
(or ( <= ( + T4 645 )  ( + T6 524 ) ) ( <= ( + T6 536 )( + T4 563 ) ) )
(or ( <= ( + T4 691 )  ( + T6 536 ) ) ( <= ( + T6 623 )( + T4 645 ) ) )
(or ( <= ( + T4 87 ) T7 ) ( <= ( + T7 85 ) T4 ) )
(or ( <= ( + T4 97 )  ( + T7 85 ) ) ( <= ( + T7 171 )( + T4 87 ) ) )
(or ( <= ( + T4 123 )  ( + T7 171 ) ) ( <= ( + T7 195 )( + T4 97 ) ) )
(or ( <= ( + T4 131 )  ( + T7 195 ) ) ( <= ( + T7 210 )( + T4 123 ) ) )
(or ( <= ( + T4 218 )  ( + T7 210 ) ) ( <= ( + T7 279 )( + T4 131 ) ) )
(or ( <= ( + T4 287 )  ( + T7 279 ) ) ( <= ( + T7 284 )( + T4 218 ) ) )
(or ( <= ( + T4 362 )  ( + T7 284 ) ) ( <= ( + T7 344 )( + T4 287 ) ) )
(or ( <= ( + T4 400 )  ( + T7 344 ) ) ( <= ( + T7 385 )( + T4 362 ) ) )
(or ( <= ( + T4 479 )  ( + T7 385 ) ) ( <= ( + T7 420 )( + T4 400 ) ) )
(or ( <= ( + T4 563 )  ( + T7 420 ) ) ( <= ( + T7 433 )( + T4 479 ) ) )
(or ( <= ( + T4 645 )  ( + T7 433 ) ) ( <= ( + T7 438 )( + T4 563 ) ) )
(or ( <= ( + T4 691 )  ( + T7 438 ) ) ( <= ( + T7 512 )( + T4 645 ) ) )
(or ( <= ( + T4 87 ) T8 ) ( <= ( + T8 10 ) T4 ) )
(or ( <= ( + T4 97 )  ( + T8 10 ) ) ( <= ( + T8 96 )( + T4 87 ) ) )
(or ( <= ( + T4 123 )  ( + T8 96 ) ) ( <= ( + T8 112 )( + T4 97 ) ) )
(or ( <= ( + T4 131 )  ( + T8 112 ) ) ( <= ( + T8 173 )( + T4 123 ) ) )
(or ( <= ( + T4 218 )  ( + T8 173 ) ) ( <= ( + T8 231 )( + T4 131 ) ) )
(or ( <= ( + T4 287 )  ( + T8 231 ) ) ( <= ( + T8 318 )( + T4 218 ) ) )
(or ( <= ( + T4 362 )  ( + T8 318 ) ) ( <= ( + T8 354 )( + T4 287 ) ) )
(or ( <= ( + T4 400 )  ( + T8 354 ) ) ( <= ( + T8 385 )( + T4 362 ) ) )
(or ( <= ( + T4 479 )  ( + T8 385 ) ) ( <= ( + T8 437 )( + T4 400 ) ) )
(or ( <= ( + T4 563 )  ( + T8 437 ) ) ( <= ( + T8 524 )( + T4 479 ) ) )
(or ( <= ( + T4 645 )  ( + T8 524 ) ) ( <= ( + T8 579 )( + T4 563 ) ) )
(or ( <= ( + T4 691 )  ( + T8 579 ) ) ( <= ( + T8 645 )( + T4 645 ) ) )
(or ( <= ( + T4 87 ) T9 ) ( <= ( + T9 25 ) T4 ) )
(or ( <= ( + T4 97 )  ( + T9 25 ) ) ( <= ( + T9 71 )( + T4 87 ) ) )
(or ( <= ( + T4 123 )  ( + T9 71 ) ) ( <= ( + T9 141 )( + T4 97 ) ) )
(or ( <= ( + T4 131 )  ( + T9 141 ) ) ( <= ( + T9 214 )( + T4 123 ) ) )
(or ( <= ( + T4 218 )  ( + T9 214 ) ) ( <= ( + T9 228 )( + T4 131 ) ) )
(or ( <= ( + T4 287 )  ( + T9 228 ) ) ( <= ( + T9 310 )( + T4 218 ) ) )
(or ( <= ( + T4 362 )  ( + T9 310 ) ) ( <= ( + T9 369 )( + T4 287 ) ) )
(or ( <= ( + T4 400 )  ( + T9 369 ) ) ( <= ( + T9 419 )( + T4 362 ) ) )
(or ( <= ( + T4 479 )  ( + T9 419 ) ) ( <= ( + T9 486 )( + T4 400 ) ) )
(or ( <= ( + T4 563 )  ( + T9 486 ) ) ( <= ( + T9 520 )( + T4 479 ) ) )
(or ( <= ( + T4 645 )  ( + T9 520 ) ) ( <= ( + T9 584 )( + T4 563 ) ) )
(or ( <= ( + T4 691 )  ( + T9 584 ) ) ( <= ( + T9 672 )( + T4 645 ) ) )
(or ( <= ( + T4 87 ) T10 ) ( <= ( + T10 91 ) T4 ) )
(or ( <= ( + T4 97 )  ( + T10 91 ) ) ( <= ( + T10 166 )( + T4 87 ) ) )
(or ( <= ( + T4 123 )  ( + T10 166 ) ) ( <= ( + T10 246 )( + T4 97 ) ) )
(or ( <= ( + T4 131 )  ( + T10 246 ) ) ( <= ( + T10 271 )( + T4 123 ) ) )
(or ( <= ( + T4 218 )  ( + T10 271 ) ) ( <= ( + T10 310 )( + T4 131 ) ) )
(or ( <= ( + T4 287 )  ( + T10 310 ) ) ( <= ( + T10 394 )( + T4 218 ) ) )
(or ( <= ( + T4 362 )  ( + T10 394 ) ) ( <= ( + T10 445 )( + T4 287 ) ) )
(or ( <= ( + T4 400 )  ( + T10 445 ) ) ( <= ( + T10 493 )( + T4 362 ) ) )
(or ( <= ( + T4 479 )  ( + T10 493 ) ) ( <= ( + T10 562 )( + T4 400 ) ) )
(or ( <= ( + T4 563 )  ( + T10 562 ) ) ( <= ( + T10 628 )( + T4 479 ) ) )
(or ( <= ( + T4 645 )  ( + T10 628 ) ) ( <= ( + T10 688 )( + T4 563 ) ) )
(or ( <= ( + T4 691 )  ( + T10 688 ) ) ( <= ( + T10 767 )( + T4 645 ) ) )
(or ( <= ( + T5 20 ) T6 ) ( <= ( + T6 22 ) T5 ) )
(or ( <= ( + T5 99 )  ( + T6 22 ) ) ( <= ( + T6 88 )( + T5 20 ) ) )
(or ( <= ( + T5 153 )  ( + T6 88 ) ) ( <= ( + T6 187 )( + T5 99 ) ) )
(or ( <= ( + T5 166 )  ( + T6 187 ) ) ( <= ( + T6 211 )( + T5 153 ) ) )
(or ( <= ( + T5 206 )  ( + T6 211 ) ) ( <= ( + T6 226 )( + T5 166 ) ) )
(or ( <= ( + T5 252 )  ( + T6 226 ) ) ( <= ( + T6 313 )( + T5 206 ) ) )
(or ( <= ( + T5 282 )  ( + T6 313 ) ) ( <= ( + T6 405 )( + T5 252 ) ) )
(or ( <= ( + T5 373 )  ( + T6 405 ) ) ( <= ( + T6 458 )( + T5 282 ) ) )
(or ( <= ( + T5 425 )  ( + T6 458 ) ) ( <= ( + T6 507 )( + T5 373 ) ) )
(or ( <= ( + T5 498 )  ( + T6 507 ) ) ( <= ( + T6 524 )( + T5 425 ) ) )
(or ( <= ( + T5 518 )  ( + T6 524 ) ) ( <= ( + T6 536 )( + T5 498 ) ) )
(or ( <= ( + T5 542 )  ( + T6 536 ) ) ( <= ( + T6 623 )( + T5 518 ) ) )
(or ( <= ( + T5 20 ) T7 ) ( <= ( + T7 85 ) T5 ) )
(or ( <= ( + T5 99 )  ( + T7 85 ) ) ( <= ( + T7 171 )( + T5 20 ) ) )
(or ( <= ( + T5 153 )  ( + T7 171 ) ) ( <= ( + T7 195 )( + T5 99 ) ) )
(or ( <= ( + T5 166 )  ( + T7 195 ) ) ( <= ( + T7 210 )( + T5 153 ) ) )
(or ( <= ( + T5 206 )  ( + T7 210 ) ) ( <= ( + T7 279 )( + T5 166 ) ) )
(or ( <= ( + T5 252 )  ( + T7 279 ) ) ( <= ( + T7 284 )( + T5 206 ) ) )
(or ( <= ( + T5 282 )  ( + T7 284 ) ) ( <= ( + T7 344 )( + T5 252 ) ) )
(or ( <= ( + T5 373 )  ( + T7 344 ) ) ( <= ( + T7 385 )( + T5 282 ) ) )
(or ( <= ( + T5 425 )  ( + T7 385 ) ) ( <= ( + T7 420 )( + T5 373 ) ) )
(or ( <= ( + T5 498 )  ( + T7 420 ) ) ( <= ( + T7 433 )( + T5 425 ) ) )
(or ( <= ( + T5 518 )  ( + T7 433 ) ) ( <= ( + T7 438 )( + T5 498 ) ) )
(or ( <= ( + T5 542 )  ( + T7 438 ) ) ( <= ( + T7 512 )( + T5 518 ) ) )
(or ( <= ( + T5 20 ) T8 ) ( <= ( + T8 10 ) T5 ) )
(or ( <= ( + T5 99 )  ( + T8 10 ) ) ( <= ( + T8 96 )( + T5 20 ) ) )
(or ( <= ( + T5 153 )  ( + T8 96 ) ) ( <= ( + T8 112 )( + T5 99 ) ) )
(or ( <= ( + T5 166 )  ( + T8 112 ) ) ( <= ( + T8 173 )( + T5 153 ) ) )
(or ( <= ( + T5 206 )  ( + T8 173 ) ) ( <= ( + T8 231 )( + T5 166 ) ) )
(or ( <= ( + T5 252 )  ( + T8 231 ) ) ( <= ( + T8 318 )( + T5 206 ) ) )
(or ( <= ( + T5 282 )  ( + T8 318 ) ) ( <= ( + T8 354 )( + T5 252 ) ) )
(or ( <= ( + T5 373 )  ( + T8 354 ) ) ( <= ( + T8 385 )( + T5 282 ) ) )
(or ( <= ( + T5 425 )  ( + T8 385 ) ) ( <= ( + T8 437 )( + T5 373 ) ) )
(or ( <= ( + T5 498 )  ( + T8 437 ) ) ( <= ( + T8 524 )( + T5 425 ) ) )
(or ( <= ( + T5 518 )  ( + T8 524 ) ) ( <= ( + T8 579 )( + T5 498 ) ) )
(or ( <= ( + T5 542 )  ( + T8 579 ) ) ( <= ( + T8 645 )( + T5 518 ) ) )
(or ( <= ( + T5 20 ) T9 ) ( <= ( + T9 25 ) T5 ) )
(or ( <= ( + T5 99 )  ( + T9 25 ) ) ( <= ( + T9 71 )( + T5 20 ) ) )
(or ( <= ( + T5 153 )  ( + T9 71 ) ) ( <= ( + T9 141 )( + T5 99 ) ) )
(or ( <= ( + T5 166 )  ( + T9 141 ) ) ( <= ( + T9 214 )( + T5 153 ) ) )
(or ( <= ( + T5 206 )  ( + T9 214 ) ) ( <= ( + T9 228 )( + T5 166 ) ) )
(or ( <= ( + T5 252 )  ( + T9 228 ) ) ( <= ( + T9 310 )( + T5 206 ) ) )
(or ( <= ( + T5 282 )  ( + T9 310 ) ) ( <= ( + T9 369 )( + T5 252 ) ) )
(or ( <= ( + T5 373 )  ( + T9 369 ) ) ( <= ( + T9 419 )( + T5 282 ) ) )
(or ( <= ( + T5 425 )  ( + T9 419 ) ) ( <= ( + T9 486 )( + T5 373 ) ) )
(or ( <= ( + T5 498 )  ( + T9 486 ) ) ( <= ( + T9 520 )( + T5 425 ) ) )
(or ( <= ( + T5 518 )  ( + T9 520 ) ) ( <= ( + T9 584 )( + T5 498 ) ) )
(or ( <= ( + T5 542 )  ( + T9 584 ) ) ( <= ( + T9 672 )( + T5 518 ) ) )
(or ( <= ( + T5 20 ) T10 ) ( <= ( + T10 91 ) T5 ) )
(or ( <= ( + T5 99 )  ( + T10 91 ) ) ( <= ( + T10 166 )( + T5 20 ) ) )
(or ( <= ( + T5 153 )  ( + T10 166 ) ) ( <= ( + T10 246 )( + T5 99 ) ) )
(or ( <= ( + T5 166 )  ( + T10 246 ) ) ( <= ( + T10 271 )( + T5 153 ) ) )
(or ( <= ( + T5 206 )  ( + T10 271 ) ) ( <= ( + T10 310 )( + T5 166 ) ) )
(or ( <= ( + T5 252 )  ( + T10 310 ) ) ( <= ( + T10 394 )( + T5 206 ) ) )
(or ( <= ( + T5 282 )  ( + T10 394 ) ) ( <= ( + T10 445 )( + T5 252 ) ) )
(or ( <= ( + T5 373 )  ( + T10 445 ) ) ( <= ( + T10 493 )( + T5 282 ) ) )
(or ( <= ( + T5 425 )  ( + T10 493 ) ) ( <= ( + T10 562 )( + T5 373 ) ) )
(or ( <= ( + T5 498 )  ( + T10 562 ) ) ( <= ( + T10 628 )( + T5 425 ) ) )
(or ( <= ( + T5 518 )  ( + T10 628 ) ) ( <= ( + T10 688 )( + T5 498 ) ) )
(or ( <= ( + T5 542 )  ( + T10 688 ) ) ( <= ( + T10 767 )( + T5 518 ) ) )
(or ( <= ( + T6 22 ) T7 ) ( <= ( + T7 85 ) T6 ) )
(or ( <= ( + T6 88 )  ( + T7 85 ) ) ( <= ( + T7 171 )( + T6 22 ) ) )
(or ( <= ( + T6 187 )  ( + T7 171 ) ) ( <= ( + T7 195 )( + T6 88 ) ) )
(or ( <= ( + T6 211 )  ( + T7 195 ) ) ( <= ( + T7 210 )( + T6 187 ) ) )
(or ( <= ( + T6 226 )  ( + T7 210 ) ) ( <= ( + T7 279 )( + T6 211 ) ) )
(or ( <= ( + T6 313 )  ( + T7 279 ) ) ( <= ( + T7 284 )( + T6 226 ) ) )
(or ( <= ( + T6 405 )  ( + T7 284 ) ) ( <= ( + T7 344 )( + T6 313 ) ) )
(or ( <= ( + T6 458 )  ( + T7 344 ) ) ( <= ( + T7 385 )( + T6 405 ) ) )
(or ( <= ( + T6 507 )  ( + T7 385 ) ) ( <= ( + T7 420 )( + T6 458 ) ) )
(or ( <= ( + T6 524 )  ( + T7 420 ) ) ( <= ( + T7 433 )( + T6 507 ) ) )
(or ( <= ( + T6 536 )  ( + T7 433 ) ) ( <= ( + T7 438 )( + T6 524 ) ) )
(or ( <= ( + T6 623 )  ( + T7 438 ) ) ( <= ( + T7 512 )( + T6 536 ) ) )
(or ( <= ( + T6 22 ) T8 ) ( <= ( + T8 10 ) T6 ) )
(or ( <= ( + T6 88 )  ( + T8 10 ) ) ( <= ( + T8 96 )( + T6 22 ) ) )
(or ( <= ( + T6 187 )  ( + T8 96 ) ) ( <= ( + T8 112 )( + T6 88 ) ) )
(or ( <= ( + T6 211 )  ( + T8 112 ) ) ( <= ( + T8 173 )( + T6 187 ) ) )
(or ( <= ( + T6 226 )  ( + T8 173 ) ) ( <= ( + T8 231 )( + T6 211 ) ) )
(or ( <= ( + T6 313 )  ( + T8 231 ) ) ( <= ( + T8 318 )( + T6 226 ) ) )
(or ( <= ( + T6 405 )  ( + T8 318 ) ) ( <= ( + T8 354 )( + T6 313 ) ) )
(or ( <= ( + T6 458 )  ( + T8 354 ) ) ( <= ( + T8 385 )( + T6 405 ) ) )
(or ( <= ( + T6 507 )  ( + T8 385 ) ) ( <= ( + T8 437 )( + T6 458 ) ) )
(or ( <= ( + T6 524 )  ( + T8 437 ) ) ( <= ( + T8 524 )( + T6 507 ) ) )
(or ( <= ( + T6 536 )  ( + T8 524 ) ) ( <= ( + T8 579 )( + T6 524 ) ) )
(or ( <= ( + T6 623 )  ( + T8 579 ) ) ( <= ( + T8 645 )( + T6 536 ) ) )
(or ( <= ( + T6 22 ) T9 ) ( <= ( + T9 25 ) T6 ) )
(or ( <= ( + T6 88 )  ( + T9 25 ) ) ( <= ( + T9 71 )( + T6 22 ) ) )
(or ( <= ( + T6 187 )  ( + T9 71 ) ) ( <= ( + T9 141 )( + T6 88 ) ) )
(or ( <= ( + T6 211 )  ( + T9 141 ) ) ( <= ( + T9 214 )( + T6 187 ) ) )
(or ( <= ( + T6 226 )  ( + T9 214 ) ) ( <= ( + T9 228 )( + T6 211 ) ) )
(or ( <= ( + T6 313 )  ( + T9 228 ) ) ( <= ( + T9 310 )( + T6 226 ) ) )
(or ( <= ( + T6 405 )  ( + T9 310 ) ) ( <= ( + T9 369 )( + T6 313 ) ) )
(or ( <= ( + T6 458 )  ( + T9 369 ) ) ( <= ( + T9 419 )( + T6 405 ) ) )
(or ( <= ( + T6 507 )  ( + T9 419 ) ) ( <= ( + T9 486 )( + T6 458 ) ) )
(or ( <= ( + T6 524 )  ( + T9 486 ) ) ( <= ( + T9 520 )( + T6 507 ) ) )
(or ( <= ( + T6 536 )  ( + T9 520 ) ) ( <= ( + T9 584 )( + T6 524 ) ) )
(or ( <= ( + T6 623 )  ( + T9 584 ) ) ( <= ( + T9 672 )( + T6 536 ) ) )
(or ( <= ( + T6 22 ) T10 ) ( <= ( + T10 91 ) T6 ) )
(or ( <= ( + T6 88 )  ( + T10 91 ) ) ( <= ( + T10 166 )( + T6 22 ) ) )
(or ( <= ( + T6 187 )  ( + T10 166 ) ) ( <= ( + T10 246 )( + T6 88 ) ) )
(or ( <= ( + T6 211 )  ( + T10 246 ) ) ( <= ( + T10 271 )( + T6 187 ) ) )
(or ( <= ( + T6 226 )  ( + T10 271 ) ) ( <= ( + T10 310 )( + T6 211 ) ) )
(or ( <= ( + T6 313 )  ( + T10 310 ) ) ( <= ( + T10 394 )( + T6 226 ) ) )
(or ( <= ( + T6 405 )  ( + T10 394 ) ) ( <= ( + T10 445 )( + T6 313 ) ) )
(or ( <= ( + T6 458 )  ( + T10 445 ) ) ( <= ( + T10 493 )( + T6 405 ) ) )
(or ( <= ( + T6 507 )  ( + T10 493 ) ) ( <= ( + T10 562 )( + T6 458 ) ) )
(or ( <= ( + T6 524 )  ( + T10 562 ) ) ( <= ( + T10 628 )( + T6 507 ) ) )
(or ( <= ( + T6 536 )  ( + T10 628 ) ) ( <= ( + T10 688 )( + T6 524 ) ) )
(or ( <= ( + T6 623 )  ( + T10 688 ) ) ( <= ( + T10 767 )( + T6 536 ) ) )
(or ( <= ( + T7 85 ) T8 ) ( <= ( + T8 10 ) T7 ) )
(or ( <= ( + T7 171 )  ( + T8 10 ) ) ( <= ( + T8 96 )( + T7 85 ) ) )
(or ( <= ( + T7 195 )  ( + T8 96 ) ) ( <= ( + T8 112 )( + T7 171 ) ) )
(or ( <= ( + T7 210 )  ( + T8 112 ) ) ( <= ( + T8 173 )( + T7 195 ) ) )
(or ( <= ( + T7 279 )  ( + T8 173 ) ) ( <= ( + T8 231 )( + T7 210 ) ) )
(or ( <= ( + T7 284 )  ( + T8 231 ) ) ( <= ( + T8 318 )( + T7 279 ) ) )
(or ( <= ( + T7 344 )  ( + T8 318 ) ) ( <= ( + T8 354 )( + T7 284 ) ) )
(or ( <= ( + T7 385 )  ( + T8 354 ) ) ( <= ( + T8 385 )( + T7 344 ) ) )
(or ( <= ( + T7 420 )  ( + T8 385 ) ) ( <= ( + T8 437 )( + T7 385 ) ) )
(or ( <= ( + T7 433 )  ( + T8 437 ) ) ( <= ( + T8 524 )( + T7 420 ) ) )
(or ( <= ( + T7 438 )  ( + T8 524 ) ) ( <= ( + T8 579 )( + T7 433 ) ) )
(or ( <= ( + T7 512 )  ( + T8 579 ) ) ( <= ( + T8 645 )( + T7 438 ) ) )
(or ( <= ( + T7 85 ) T9 ) ( <= ( + T9 25 ) T7 ) )
(or ( <= ( + T7 171 )  ( + T9 25 ) ) ( <= ( + T9 71 )( + T7 85 ) ) )
(or ( <= ( + T7 195 )  ( + T9 71 ) ) ( <= ( + T9 141 )( + T7 171 ) ) )
(or ( <= ( + T7 210 )  ( + T9 141 ) ) ( <= ( + T9 214 )( + T7 195 ) ) )
(or ( <= ( + T7 279 )  ( + T9 214 ) ) ( <= ( + T9 228 )( + T7 210 ) ) )
(or ( <= ( + T7 284 )  ( + T9 228 ) ) ( <= ( + T9 310 )( + T7 279 ) ) )
(or ( <= ( + T7 344 )  ( + T9 310 ) ) ( <= ( + T9 369 )( + T7 284 ) ) )
(or ( <= ( + T7 385 )  ( + T9 369 ) ) ( <= ( + T9 419 )( + T7 344 ) ) )
(or ( <= ( + T7 420 )  ( + T9 419 ) ) ( <= ( + T9 486 )( + T7 385 ) ) )
(or ( <= ( + T7 433 )  ( + T9 486 ) ) ( <= ( + T9 520 )( + T7 420 ) ) )
(or ( <= ( + T7 438 )  ( + T9 520 ) ) ( <= ( + T9 584 )( + T7 433 ) ) )
(or ( <= ( + T7 512 )  ( + T9 584 ) ) ( <= ( + T9 672 )( + T7 438 ) ) )
(or ( <= ( + T7 85 ) T10 ) ( <= ( + T10 91 ) T7 ) )
(or ( <= ( + T7 171 )  ( + T10 91 ) ) ( <= ( + T10 166 )( + T7 85 ) ) )
(or ( <= ( + T7 195 )  ( + T10 166 ) ) ( <= ( + T10 246 )( + T7 171 ) ) )
(or ( <= ( + T7 210 )  ( + T10 246 ) ) ( <= ( + T10 271 )( + T7 195 ) ) )
(or ( <= ( + T7 279 )  ( + T10 271 ) ) ( <= ( + T10 310 )( + T7 210 ) ) )
(or ( <= ( + T7 284 )  ( + T10 310 ) ) ( <= ( + T10 394 )( + T7 279 ) ) )
(or ( <= ( + T7 344 )  ( + T10 394 ) ) ( <= ( + T10 445 )( + T7 284 ) ) )
(or ( <= ( + T7 385 )  ( + T10 445 ) ) ( <= ( + T10 493 )( + T7 344 ) ) )
(or ( <= ( + T7 420 )  ( + T10 493 ) ) ( <= ( + T10 562 )( + T7 385 ) ) )
(or ( <= ( + T7 433 )  ( + T10 562 ) ) ( <= ( + T10 628 )( + T7 420 ) ) )
(or ( <= ( + T7 438 )  ( + T10 628 ) ) ( <= ( + T10 688 )( + T7 433 ) ) )
(or ( <= ( + T7 512 )  ( + T10 688 ) ) ( <= ( + T10 767 )( + T7 438 ) ) )
(or ( <= ( + T8 10 ) T9 ) ( <= ( + T9 25 ) T8 ) )
(or ( <= ( + T8 96 )  ( + T9 25 ) ) ( <= ( + T9 71 )( + T8 10 ) ) )
(or ( <= ( + T8 112 )  ( + T9 71 ) ) ( <= ( + T9 141 )( + T8 96 ) ) )
(or ( <= ( + T8 173 )  ( + T9 141 ) ) ( <= ( + T9 214 )( + T8 112 ) ) )
(or ( <= ( + T8 231 )  ( + T9 214 ) ) ( <= ( + T9 228 )( + T8 173 ) ) )
(or ( <= ( + T8 318 )  ( + T9 228 ) ) ( <= ( + T9 310 )( + T8 231 ) ) )
(or ( <= ( + T8 354 )  ( + T9 310 ) ) ( <= ( + T9 369 )( + T8 318 ) ) )
(or ( <= ( + T8 385 )  ( + T9 369 ) ) ( <= ( + T9 419 )( + T8 354 ) ) )
(or ( <= ( + T8 437 )  ( + T9 419 ) ) ( <= ( + T9 486 )( + T8 385 ) ) )
(or ( <= ( + T8 524 )  ( + T9 486 ) ) ( <= ( + T9 520 )( + T8 437 ) ) )
(or ( <= ( + T8 579 )  ( + T9 520 ) ) ( <= ( + T9 584 )( + T8 524 ) ) )
(or ( <= ( + T8 645 )  ( + T9 584 ) ) ( <= ( + T9 672 )( + T8 579 ) ) )
(or ( <= ( + T8 10 ) T10 ) ( <= ( + T10 91 ) T8 ) )
(or ( <= ( + T8 96 )  ( + T10 91 ) ) ( <= ( + T10 166 )( + T8 10 ) ) )
(or ( <= ( + T8 112 )  ( + T10 166 ) ) ( <= ( + T10 246 )( + T8 96 ) ) )
(or ( <= ( + T8 173 )  ( + T10 246 ) ) ( <= ( + T10 271 )( + T8 112 ) ) )
(or ( <= ( + T8 231 )  ( + T10 271 ) ) ( <= ( + T10 310 )( + T8 173 ) ) )
(or ( <= ( + T8 318 )  ( + T10 310 ) ) ( <= ( + T10 394 )( + T8 231 ) ) )
(or ( <= ( + T8 354 )  ( + T10 394 ) ) ( <= ( + T10 445 )( + T8 318 ) ) )
(or ( <= ( + T8 385 )  ( + T10 445 ) ) ( <= ( + T10 493 )( + T8 354 ) ) )
(or ( <= ( + T8 437 )  ( + T10 493 ) ) ( <= ( + T10 562 )( + T8 385 ) ) )
(or ( <= ( + T8 524 )  ( + T10 562 ) ) ( <= ( + T10 628 )( + T8 437 ) ) )
(or ( <= ( + T8 579 )  ( + T10 628 ) ) ( <= ( + T10 688 )( + T8 524 ) ) )
(or ( <= ( + T8 645 )  ( + T10 688 ) ) ( <= ( + T10 767 )( + T8 579 ) ) )
(or ( <= ( + T9 25 ) T10 ) ( <= ( + T10 91 ) T9 ) )
(or ( <= ( + T9 71 )  ( + T10 91 ) ) ( <= ( + T10 166 )( + T9 25 ) ) )
(or ( <= ( + T9 141 )  ( + T10 166 ) ) ( <= ( + T10 246 )( + T9 71 ) ) )
(or ( <= ( + T9 214 )  ( + T10 246 ) ) ( <= ( + T10 271 )( + T9 141 ) ) )
(or ( <= ( + T9 228 )  ( + T10 271 ) ) ( <= ( + T10 310 )( + T9 214 ) ) )
(or ( <= ( + T9 310 )  ( + T10 310 ) ) ( <= ( + T10 394 )( + T9 228 ) ) )
(or ( <= ( + T9 369 )  ( + T10 394 ) ) ( <= ( + T10 445 )( + T9 310 ) ) )
(or ( <= ( + T9 419 )  ( + T10 445 ) ) ( <= ( + T10 493 )( + T9 369 ) ) )
(or ( <= ( + T9 486 )  ( + T10 493 ) ) ( <= ( + T10 562 )( + T9 419 ) ) )
(or ( <= ( + T9 520 )  ( + T10 562 ) ) ( <= ( + T10 628 )( + T9 486 ) ) )
(or ( <= ( + T9 584 )  ( + T10 628 ) ) ( <= ( + T10 688 )( + T9 520 ) ) )
(or ( <= ( + T9 672 )  ( + T10 688 ) ) ( <= ( + T10 767 )( + T9 584 ) ) )
( <= ( + T1 514 ) Z)
( <= ( + T2 735 ) Z)
( <= ( + T3 679 ) Z)
( <= ( + T4 691 ) Z)
( <= ( + T5 542 ) Z)
( <= ( + T6 623 ) Z)
( <= ( + T7 512 ) Z)
( <= ( + T8 645 ) Z)
( <= ( + T9 672 ) Z)
( <= ( + T10 767 ) Z)
( >= T1 0 )
( >= T2 0 )
( >= T3 0 )
( >= T4 0 )
( >= T5 0 )
( >= T6 0 )
( >= T7 0 )
( >= T8 0 )
( >= T9 0 )
( >= T10 0 )
) )
(minimize Z)
(check-sat)